RT is False
Default write of storage_offers_DA.csv just to have a file (but constraint should be inactive)
Reading model...
...model read.
creating competitive generators file...
...competitive generators recorded.
Loading data...
.. day-ahead data read.
Compiling instance...
...instance created.
Creating Offer Mitigation (model will solve as dispatch if TRUE)...
NOTE: storage offers will not be mitigated
...storage offer mitigation file created
Solving...

Welcome to IBM(R) ILOG(R) CPLEX(R) Interactive Optimizer 12.8.0.0
  with Simplex, Mixed Integer & Barrier Optimizers
5725-A06 5725-A29 5724-Y48 5724-Y49 5724-Y54 5724-Y55 5655-Y21
Copyright IBM Corp. 1988, 2017.  All Rights Reserved.

Type 'help' for a list of available commands.
Type 'help' followed by a command name for more
information on commands.

CPLEX> Logfile 'cplex.log' closed.
Logfile 'C:\Users\llavi\Desktop\test919\logs\tmp8j11bt9u.cplex.log' open.
CPLEX> New value for parallel optimization mode: -1
CPLEX> New value for mixed integer optimality gap tolerance: 0.01
CPLEX> New value for integrality tolerance: 1e-09
CPLEX> New value for feasibility tolerance: 0.01
CPLEX> New value for deterministic time limit in ticks: 75000
CPLEX> Problem 'C:\Users\llavi\Desktop\test919\logs\tmpkqbvmy1f.pyomo.lp' read.
Read time = 0.13 sec. (3.03 ticks)
CPLEX> Problem name         : C:\Users\llavi\Desktop\test919\logs\tmpkqbvmy1f.pyomo.lp
Objective sense      : Minimize
Variables            :   26465  [Nneg: 1,  Box: 22000,  Free: 4464]
Objective nonzeros   :    2496
Linear constraints   :   27515  [Less: 14006,  Greater: 4416,  Equal: 9093]
  Nonzeros           :   89267
  RHS nonzeros       :   12305

Variables            : Min LB: -5000.000        Max UB: 1000000.       
Objective nonzeros   : Min   : 15.73158         Max   : 124.0997       
Linear constraints   :
  Nonzeros           : Min   : 0.8500000        Max   : 3000.000       
  RHS nonzeros       : Min   : 0.2000000        Max   : 5000.000       
CPLEX> CPXPARAM_Simplex_Tolerances_Feasibility          0.01
CPXPARAM_Parallel                                -1
CPXPARAM_DetTimeLimit                            75000
CPXPARAM_MIP_Tolerances_MIPGap                   0.01
CPXPARAM_MIP_Tolerances_Integrality              1.0000000000000001e-09
Parallel mode: opportunistic, using up to 4 threads for concurrent optimization.
Tried aggregator 1 time.
LP Presolve eliminated 21353 rows and 15839 columns.
Aggregator did 763 substitutions.
Reduced LP has 5399 rows, 9863 columns, and 31841 nonzeros.
Presolve time = 0.06 sec. (22.76 ticks)

Iteration log . . .
Iteration:     1   Dual objective     =             0.000000
Perturbation started.
Iteration:   101   Dual objective     =             0.000000
Iteration:   362   Dual objective     =             1.242336
Iteration:   661   Dual objective     =             1.752894
Iteration:   943   Dual objective     =             1.874085
Iteration:  1161   Dual objective     =             1.982548
Iteration:  1507   Dual objective     =             2.041523
Iteration:  1815   Dual objective     =             2.069298
Iteration:  2106   Dual objective     =             2.086593
Iteration:  2403   Dual objective     =             2.100037
Iteration:  2704   Dual objective     =             2.113584
Iteration:  3074   Dual objective     =             2.123656
Iteration:  3510   Dual objective     =          3127.451964
Iteration:  3887   Dual objective     =         16381.761980
Iteration:  4365   Dual objective     =         19666.139655
Removing perturbation.

Dual simplex solved model.


Dual simplex - Optimal:  Objective =  1.9680994900e+04
Solution time =    0.20 sec.  Iterations = 4421 (0)
Deterministic time = 95.24 ticks  (466.88 ticks/sec)

CPLEX> Solution written to file 'C:\Users\llavi\Desktop\test919\logs\tmpz72ka8s4.cplex.sol'.
CPLEX> Exporting results... 
